400
200 200
1 140 251
2 139 216
3 139 857
4 138 912
5 138 474
6 137 994
7 137 193
8 137 279
9 136 235
10 136 759
11 136 813
12 135 809
13 134 772
14 133 174
15 133 338
16 133 284
17 133 699
18 132 257
19 132 733
20 132 919
21 131 751
22 131 716
23 131 914
24 131 781
25 131 799
26 131 865
27 130 882
28 130 493
29 130 399
30 129 976
31 128 232
32 128 962
33 128 897
34 128 304
35 128 192
36 128 36
37 128 832
38 128 363
39 128 912
40 127 313
41 126 910
42 126 441
43 126 875
44 126 329
45 126 468
46 125 311
47 125 649
48 125 941
49 125 941
50 125 510
51 124 901
52 124 724
53 124 472
54 123 588
55 123 796
56 123 511
57 123 158
58 123 697
59 122 211
60 122 735
61 121 358
62 121 512
63 121 555
64 121 848
65 120 303
66 120 211
67 120 870
68 119 636
69 119 355
70 119 916
71 119 870
72 118 702
73 118 672
74 117 182
75 117 50
76 117 54
77 117 205
78 117 9
79 116 169
80 116 354
81 115 182
82 115 60
83 114 252
84 114 885
85 114 589
86 114 967
87 113 121
88 113 672
89 112 12
90 111 356
91 111 979
92 111 164
93 111 766
94 111 962
95 110 20
96 110 102
97 110 188
98 110 891
99 109 564
100 109 821
101 108 641
102 107 627
103 107 802
104 107 165
105 107 284
106 107 815
107 106 304
108 106 85
109 106 286
110 106 344
111 106 763
112 106 591
113 106 526
114 104 268
115 104 537
116 104 890
117 103 768
118 102 618
119 102 737
120 102 435
121 102 130
122 101 597
123 101 540
124 101 781
125 101 71
126 100 37
127 99 890
128 99 34
129 99 488
130 99 991
131 98 466
132 98 455
133 98 560
134 98 298
135 97 895
136 97 39
137 97 95
138 97 341
139 97 675
140 97 265
141 97 309
142 96 921
143 96 105
144 95 683
145 94 338
146 93 53
147 93 815
148 93 208
149 93 291
150 92 429
151 91 215
152 91 187
153 90 26
154 90 756
155 90 653
156 90 721
157 89 244
158 89 992
159 88 27
160 88 158
161 88 354
162 88 394
163 88 663
164 88 151
165 87 809
166 86 729
167 86 806
168 86 714
169 86 487
170 85 747
171 85 70
172 85 804
173 85 382
174 84 634
175 84 924
176 84 12
177 84 558
178 84 30
179 83 639
180 83 434
181 82 217
182 82 837
183 82 220
184 82 754
185 81 617
186 81 260
187 81 42
188 81 97
189 80 912
190 80 451
191 80 508
192 80 468
193 80 142
194 79 228
195 79 327
196 79 671
197 78 720
198 78 472
199 78 762
200 78 349
201 77 20
202 77 212
203 77 363
204 77 56
205 77 34
206 77 228
207 75 870
208 75 755
209 75 111
210 75 132
211 74 595
212 74 193
213 74 410
214 74 25
215 73 955
216 73 638
217 73 225
218 72 931
219 72 500
220 72 337
221 72 597
222 71 495
223 71 814
224 71 173
225 70 433
226 70 563
227 70 684
228 69 212
229 69 55
230 68 758
231 68 150
232 68 260
233 68 914
234 67 365
235 67 272
236 66 166
237 66 317
238 66 317
239 66 52
240 66 633
241 65 180
242 65 986
243 64 665
244 64 99
245 63 121
246 63 500
247 63 969
248 62 474
249 62 836
250 62 345
251 62 413
252 62 342
253 61 612
254 60 450
255 60 996
256 60 562
257 59 50
258 59 588
259 59 871
260 59 938
261 59 945
262 59 829
263 58 487
264 57 284
265 57 997
266 57 686
267 57 661
268 56 944
269 56 750
270 56 672
271 56 902
272 56 163
273 56 389
274 56 674
275 55 293
276 55 600
277 54 264
278 53 385
279 53 154
280 53 719
281 53 388
282 53 264
283 52 681
284 52 595
285 52 720
286 51 61
287 51 567
288 51 80
289 50 151
290 50 286
291 50 818
292 50 704
293 50 537
294 50 302
295 49 178
296 49 343
297 48 235
298 48 561
299 48 197
300 48 584
301 48 588
302 47 52
303 47 828
304 47 59
305 46 473
306 46 849
307 46 396
308 45 830
309 45 197
310 45 217
311 45 200
312 44 541
313 44 976
314 44 39
315 43 993
316 43 859
317 43 806
318 43 850
319 43 958
320 42 177
321 42 857
322 41 724
323 41 748
324 41 829
325 40 393
326 40 443
327 39 475
328 39 23
329 39 286
330 39 377
331 39 487
332 39 212
333 38 717
334 38 897
335 38 754
336 38 824
337 38 421
338 38 797
339 38 858
340 38 489
341 37 977
342 37 199
343 37 768
344 37 926
345 36 221
346 36 181
347 36 268
348 35 124
349 34 393
350 34 439
351 34 30
352 34 508
353 34 349
354 33 271
355 33 182
356 32 413
357 32 684
358 32 836
359 32 526
360 31 402
361 31 708
362 31 260
363 31 274
364 31 758
365 31 331
366 29 865
367 29 555
368 29 15
369 28 464
370 27 79
371 27 475
372 26 926
373 26 168
374 26 580
375 25 920
376 25 490
377 25 370
378 24 119
379 23 528
380 23 414
381 23 63
382 22 523
383 22 273
384 22 32
385 22 588
386 22 266
387 22 179
388 22 845
389 22 415
390 21 353
391 21 631
392 21 393
393 21 342
394 21 366
395 21 899
396 20 188
397 20 27
398 20 903
399 20 641
400 20 767
